100
504 87 29 56 224 232 58 56 58 261 560 203 58 448 87 116 29 87 280 261 29 168 145 56 392 448 29 280 336 116 504 145 112 168 87 261 174 280 280 145 392 203 29 29 336 560 174 145 112 203 448 224 29 224 168 58 280 87 448 336 116 145 261 56 145 261 145 58 232 448 392 145 56 58 392 448 224 29 290 504 392 280 29 448 392 168 336 87 116 232 56 336 232 224 560 560 174 336 448 290 
1386 6 2 154 616 16 4 154 4 18 1540 14 4 1232 6 8 2 6 770 18 2 462 10 154 1078 1232 2 770 924 8 1386 10 308 462 6 18 12 770 770 10 1078 14 2 2 924 1540 12 10 308 14 1232 616 2 616 462 4 770 6 1232 924 8 10 18 154 10 18 10 4 16 1232 1078 10 154 4 1078 1232 616 2 20 1386 1078 770 2 1232 1078 462 924 6 8 16 154 924 16 616 1540 1540 12 924 1232 20 
11106
